% Generated FlatZinc statistics:
%%%mzn-stat: paths=0
%%%mzn-stat: flatBoolVars=398
%%%mzn-stat: flatIntVars=797
%%%mzn-stat: flatBoolConstraints=199
%%%mzn-stat: flatIntConstraints=903
%%%mzn-stat: evaluatedReifiedConstraints=496
%%%mzn-stat: evaluatedHalfReifiedConstraints=1
%%%mzn-stat: method="minimize"
%%%mzn-stat: flatTime=7.57581
%%%mzn-stat-end

% Pruned 49994 learnt clauses
% Pruned 49984 learnt clauses
% Pruned 49984 learnt clauses
% Pruned 49980 learnt clauses
% Pruned 49983 learnt clauses
% Pruned 49971 learnt clauses
%%%mzn-stat: nodes=402010
%%%mzn-stat: failures=376103
%%%mzn-stat: restarts=12
%%%mzn-stat: variables=688253
%%%mzn-stat: intVars=897
%%%mzn-stat: boolVariables=687354
%%%mzn-stat: propagators=1203
%%%mzn-stat: propagations=751003859
%%%mzn-stat: peakDepth=83
%%%mzn-stat: nogoods=376103
%%%mzn-stat: backjumps=24913
%%%mzn-stat: peakMem=0.00
%%%mzn-stat: time=300.751
%%%mzn-stat: initTime=0.747
%%%mzn-stat: solveTime=300.004
%%%mzn-stat: objective=-37723
%%%mzn-stat: optTime=275.220
%%%mzn-stat: baseMem=0.00
%%%mzn-stat: trailMem=4.75
%%%mzn-stat: randomSeed=1585930093
S = [49, 2, 31, 85, 5, 6, 26, 8, 52, 18, 11, 42, 93, 14, 4, 16, 29, 15, 19, 20, 21, 32, 23, 24, 54, 68, 33, 28, 82, 67, 100, 47, 84, 34, 35, 74, 17, 38, 57, 86, 41, 89, 7, 44, 91, 46, 78, 48, 60, 50, 75, 39, 53, 9, 55, 79, 98, 58, 36, 22, 81, 62, 63, 56, 43, 66, 80, 59, 65, 64, 37, 72, 10, 70, 95, 76, 77, 12, 40, 87, 30, 45, 83, 13, 27, 51, 69, 88, 71, 90, 73, 92, 25, 94, 3, 96, 97, 61, 99, 1]
P = [100, 2, 95, 15, 5, 6, 43, 8, 54, 73, 11, 78, 84, 14, 18, 16, 37, 10, 19, 20, 21, 60, 23, 24, 93, 7, 85, 28, 17, 81, 3, 22, 27, 34, 35, 59, 71, 38, 52, 79, 41, 12, 65, 44, 82, 46, 32, 48, 1, 50, 86, 9, 53, 25, 55, 64, 39, 58, 68, 49, 98, 62, 63, 70, 69, 66, 30, 26, 87, 74, 89, 72, 91, 36, 51, 76, 77, 47, 56, 67, 61, 29, 83, 33, 4, 40, 80, 88, 42, 90, 45, 92, 13, 94, 75, 96, 97, 57, 99, 31]
cost = 37723
% Time limit exceeded!
itinerary = [1,49,60,22,32,47,78,12,42,89,71,37,17,29,82,45,91,73,10,18,15,4,85,27,33,84,13,93,25,54,9,52,39,57,98,61,81,30,67,80,87,69,65,43,7,26,68,59,36,74,70,64,56,79,40,86,51,75,95,3,31,100]
opt = false
